NAME: generated_7_sym_1_50_GaussianDistrib_noSparse.tsp
TYPE: TSP
COMMENT: Test case generated with custom generator!
DIMENSION: 7
EDGE_WEIGHT_TYPE: EXPLICIT
EDGE_WEIGHT_FORMAT: FULL_MATRIX
DISPLAY_DATA_TYPE: TWOD_DISPLAY
EDGE_WEIGHT_SECTION
0 25 25 24 24 26 26 
25 0 24 26 24 24 24 
25 24 0 26 25 24 23 
24 26 26 0 25 25 23 
24 24 25 25 0 24 24 
26 24 24 25 24 0 25 
26 24 23 23 24 25 0 
